NAME : tmp
TYPE : TSP
DIMENSION : 9
EDGE_WEIGHT_TYPE : EUC_2D
NODE_COORD_SECTION
1 212.7 743.55
2 255.04 666.19
3 275.2 411.17
4 242.94 270.77
5 184.48 247.85
6 87.702 373.93
7 61.492 654.73
8 83.669 803.72
9 285.28 898.28
EOF
